
  32    4
  10   10   10   10

   0   0   0   0   0   2 2 5 
   1   0   1   1   1   2 8 3 
   3   0   7   1   5   2 10 4 
   2   1   0   5   4   2 7 6 
  10   3   4   3   0   1 6 
   9   3   0   4   4   2 11 9 
   7   5   0   6   6   2 13 9 
   5   8   0   4   3   2 13 12 
   3   1   5   5   0   2 15 12 
   1   5   3   6   0   2 15 13 
   7   0   6   3   2   1 13 
   9   4   0   6   2   2 19 16 
   1   5   2   0   9   1 14 
   4   7   4   3   0   2 19 17 
   8   5   4   4   0   2 19 17 
   9   6   0   4   5   1 17 
   8   3   2   4   0   1 18 
   2   2   0   2   8   2 22 20 
   2   6   5   4   0   4 24 23 22 21 
   5   3   8   0   4   4 25 24 23 21 
  10   6   2   0   2   2 29 26 
   2   4   4   2   0   2 29 25 
   9   0   6   6   4   2 30 27 
   1   0   4   4   3   2 29 27 
   2   1   7   0   5   2 30 28 
   7   1   3   7   0   1 27 
   4   0   3   2   2   1 28 
   8   0   2   5   4   1 31 
   9   3   3   0   6   1 31 
   8   5   3   4   0   1 31 
  10   5   0   5   1   1 32
   0   0   0   0   0   0 
